
  12    4
  10   10   10   10

   0   0   0   0   0   1 2 
   4  10  10  10  10   2 5 3 
  10  10  10  10  10   3 7 6 4 
   6  10  10  10  10   3 11 9 8 
   9  10  10  10  10   2 8 7 
   4  10  10  10  10   2 11 8 
   4  10  10  10  10   2 11 10 
   9  10  10  10  10   1 10 
   3  10  10  10  10   1 10 
   1  10  10  10  10   1 12
   2  10  10  10  10   1 12
   0   0   0   0   0   0 
